data/instances/vrp_files/train_7.vrp
NAME : 7
COMMENT : Generated instance No. 7
TYPE : CVRP
DIMENSION : 21
EDGE_WEIGHT_TYPE : EUC_2D
CAPACITY : 30
NODE_COORD_SECTION
 1 330 434
 2 493 83
 3 91 602
 4 553 212
 5 946 781
 6 113 930
 7 974 995
 8 55 737
 9 545 705
 10 968 688
 11 836 866
 12 838 426
 13 222 396
 14 891 146
 15 513 233
 16 581 863
 17 880 236
 18 907 591
 19 350 708
 20 481 377
 21 705 248
DEMAND_SECTION
1 0
2 2
3 10
4 4
5 8
6 9
7 7
8 1
9 3
10 9
11 1
12 9
13 8
14 1
15 6
16 5
17 6
18 10
19 5
20 6
21 5
DEPOT_SECTION
 1
 -1
EOF